
Value of objective function: 15.00000000

Actual values of the variables:
z                              15
y0                              1
y5                              1
x0.0                            1
x1.0                            1
x2.0                            1
x3.5                            1
x4.0                            1
x5.0                            1
x6.5                            1
x7.5                            1
x8.5                            1

Value of objective function: 10.00000000

Actual values of the variables:
z                              10
y0                              1
y3                              1
x0.0                            1
x1.0                            1
x2.3                            1
x3.3                            1
x4.0                            1
x5.3                            1
x6.3                            1
x7.3                            1
x8.3                            1

Value of objective function: 9.00000000

Actual values of the variables:
z                               9
y0                              1
y6                              1
x0.0                            1
x1.0                            1
x2.6                            1
x3.6                            1
x4.0                            1
x5.6                            1
x6.6                            1
x7.6                            1
x8.6                            1

Value of objective function: 9.00000000

Actual values of the variables:
z                               9
y0                              1
y6                              1
x0.0                            1
x1.0                            1
x2.6                            1
x3.6                            1
x4.0                            1
x5.6                            1
x6.6                            1
x7.6                            1
x8.6                            1

CPU Time for Parsing input: 0.001878s (0.001878s total since program start)
CPU Time for solving: 0.006909s (0.008787s total since program start)
Branch & Bound depth: 6
Nodes processed: 28
Simplex pivots: 247
Number of equal solutions: 1
